c This is QMaxSAT 2017 based on 14.07
c This is Glucose 3.0
c This is MiniSat 2.2.0
c WARNING: for repeatability, setting FPU to use double precision
c card = mrwto, comp = 0, pmodel = 0, narr = 12, mct = 52, verb = 0
cr firstCPXsol 0 0 0
c top = 1525567
c |  Number of variables:    162498                                           |
c |  Number of clauses:      181788606                                        |
c |  Weight of hard clauses: 1525567                                          |
c |  Number of soft clauses: 31824                                            |
c |  Number of unit soft clauses: 31824                                       |
c |  Maximum Cardinality (by unit): 18306792     (18306792    )               |
c last restart ## conflicts  :  47 123438 
o 5052 | cpuTime 16.7251 s
c Sum of weights = 1525566
c A number of soft clauses remained = 2652
c MRWTO encoding for Pseudo-Boolean Constraints
c sizeMax=5052
c No.0 Divisor=9	generated by pow1
c No.1 Divisor=9	generated by pow1
c No.2 Divisor=9	generated by pow1
c No.3 Divisor=9	generated by pow1
c p0= 9	p1= 9	p2= 9	p3= 9	
c number of digits = 5
c linkingVar[0].size = 9, linkingVar[1].size = 9, linkingVar[2].size = 9, linkingVar[3].size = 7, linkingVar[4].size = 1, 
c Pseudo-Boolean Constraints: 67600 variables and 545819 clauses
c Sum of weights = 1525566
c A number of soft clauses remained = 2652
c MRWTO encoding for Pseudo-Boolean Constraints
c sizeMax=5052
c No.0 Divisor=9	generated by pow1
c No.1 Divisor=9	generated by pow1
c No.2 Divisor=9	generated by pow1
c No.3 Divisor=9	generated by pow1
c p0= 9	p1= 9	p2= 9	p3= 9	
c number of digits = 5
c linkingVar[0].size = 9, linkingVar[1].size = 9, linkingVar[2].size = 9, linkingVar[3].size = 7, linkingVar[4].size = 1, 
c Pseudo-Boolean Constraints: 67600 variables and 545819 clauses
c Sum of weights = 1525566
c A number of soft clauses remained = 2652
c MRWTO encoding for Pseudo-Boolean Constraints
c sizeMax=5052
c No.0 Divisor=9	generated by pow1
c No.1 Divisor=9	generated by pow1
c No.2 Divisor=9	generated by pow1
c No.3 Divisor=9	generated by pow1
c p0= 9	p1= 9	p2= 9	p3= 9	
c number of digits = 5
c linkingVar[0].size = 9, linkingVar[1].size = 9, linkingVar[2].size = 9, linkingVar[3].size = 7, linkingVar[4].size = 1, 
c Pseudo-Boolean Constraints: 67600 variables and 545819 clauses
c Sum of weights = 1525566
c A number of soft clauses remained = 2652
c MRWTO encoding for Pseudo-Boolean Constraints
c sizeMax=5052
c No.0 Divisor=9	generated by pow1
c No.1 Divisor=9	generated by pow1
c No.2 Divisor=9	generated by pow1
c No.3 Divisor=9	generated by pow1
c p0= 9	p1= 9	p2= 9	p3= 9	
c number of digits = 5
c linkingVar[0].size = 9, linkingVar[1].size = 9, linkingVar[2].size = 9, linkingVar[3].size = 7, linkingVar[4].size = 1, 
c Pseudo-Boolean Constraints: 67600 variables and 545819 clauses
c Sum of weights = 1525566
c A number of soft clauses remained = 2652
c MRWTO encoding for Pseudo-Boolean Constraints
c sizeMax=5052
c No.0 Divisor=9	generated by pow1
c No.1 Divisor=9	generated by pow1
c No.2 Divisor=9	generated by pow1
c No.3 Divisor=9	generated by pow1
c p0= 9	p1= 9	p2= 9	p3= 9	
c number of digits = 5
c linkingVar[0].size = 9, linkingVar[1].size = 9, linkingVar[2].size = 9, linkingVar[3].size = 7, linkingVar[4].size = 1, 
c Pseudo-Boolean Constraints: 67600 variables and 545819 clauses
c Sum of weights = 1525566
c A number of soft clauses remained = 2652
c MRWTO encoding for Pseudo-Boolean Constraints
c sizeMax=5052
c No.0 Divisor=9	generated by pow1
c No.1 Divisor=9	generated by pow1
c No.2 Divisor=9	generated by pow1
c No.3 Divisor=9	generated by pow1
c p0= 9	p1= 9	p2= 9	p3= 9	
c number of digits = 5
c linkingVar[0].size = 9, linkingVar[1].size = 9, linkingVar[2].size = 9, linkingVar[3].size = 7, linkingVar[4].size = 1, 
c Pseudo-Boolean Constraints: 67600 variables and 545819 clauses
c Sum of weights = 1525566
c A number of soft clauses remained = 2652
c MRWTO encoding for Pseudo-Boolean Constraints
c sizeMax=5052
c No.0 Divisor=9	generated by pow1
c No.1 Divisor=9	generated by pow1
c No.2 Divisor=9	generated by pow1
c No.3 Divisor=9	generated by pow1
c p0= 9	p1= 9	p2= 9	p3= 9	
c number of digits = 5
c linkingVar[0].size = 9, linkingVar[1].size = 9, linkingVar[2].size = 9, linkingVar[3].size = 7, linkingVar[4].size = 1, 
c Pseudo-Boolean Constraints: 67600 variables and 545819 clauses
c Sum of weights = 1525566
c A number of soft clauses remained = 2652
c MRWTO encoding for Pseudo-Boolean Constraints
c sizeMax=5052
c No.0 Divisor=9	generated by pow1
c No.1 Divisor=9	generated by pow1
c No.2 Divisor=9	generated by pow1
c No.3 Divisor=9	generated by pow1
c p0= 9	p1= 9	p2= 9	p3= 9	
c number of digits = 5
c linkingVar[0].size = 9, linkingVar[1].size = 9, linkingVar[2].size = 9, linkingVar[3].size = 7, linkingVar[4].size = 1, 
c Pseudo-Boolean Constraints: 67600 variables and 545819 clauses
c Sum of weights = 1525566
c A number of soft clauses remained = 2652
c MRWTO encoding for Pseudo-Boolean Constraints
c sizeMax=5052
c No.0 Divisor=9	generated by pow1
c No.1 Divisor=9	generated by pow1
c No.2 Divisor=9	generated by pow1
c No.3 Divisor=9	generated by pow1
c p0= 9	p1= 9	p2= 9	p3= 9	
c number of digits = 5
c linkingVar[0].size = 9, linkingVar[1].size = 9, linkingVar[2].size = 9, linkingVar[3].size = 7, linkingVar[4].size = 1, 
c Pseudo-Boolean Constraints: 67600 variables and 545819 clauses
c Sum of weights = 1525566
c A number of soft clauses remained = 2652
c MRWTO encoding for Pseudo-Boolean Constraints
c sizeMax=5052
c No.0 Divisor=9	generated by pow1
c No.1 Divisor=9	generated by pow1
c No.2 Divisor=9	generated by pow1
c No.3 Divisor=9	generated by pow1
c p0= 9	p1= 9	p2= 9	p3= 9	
c number of digits = 5
c linkingVar[0].size = 9, linkingVar[1].size = 9, linkingVar[2].size = 9, linkingVar[3].size = 7, linkingVar[4].size = 1, 
c Pseudo-Boolean Constraints: 67600 variables and 545819 clauses
c Sum of weights = 1525566
c A number of soft clauses remained = 2652
c MRWTO encoding for Pseudo-Boolean Constraints
c sizeMax=5052
c No.0 Divisor=9	generated by pow1
c No.1 Divisor=9	generated by pow1
c No.2 Divisor=9	generated by pow1
c No.3 Divisor=9	generated by pow1
c p0= 9	p1= 9	p2= 9	p3= 9	
c number of digits = 5
c linkingVar[0].size = 9, linkingVar[1].size = 9, linkingVar[2].size = 9, linkingVar[3].size = 7, linkingVar[4].size = 1, 
c Pseudo-Boolean Constraints: 67600 variables and 545819 clauses
c Sum of weights = 1525566
c A number of soft clauses remained = 2652
c MRWTO encoding for Pseudo-Boolean Constraints
c sizeMax=5052
c No.0 Divisor=9	generated by pow1
c No.1 Divisor=9	generated by pow1
c No.2 Divisor=9	generated by pow1
c No.3 Divisor=9	generated by pow1
c p0= 9	p1= 9	p2= 9	p3= 9	
c number of digits = 5
c linkingVar[0].size = 9, linkingVar[1].size = 9, linkingVar[2].size = 9, linkingVar[3].size = 7, linkingVar[4].size = 1, 
c Pseudo-Boolean Constraints: 67600 variables and 545819 clauses
c last restart ## conflicts  :  761 86983 
o 4351 | cpuTime 102.369 s
c last restart ## conflicts  :  686 69972 
o 3841 | cpuTime 166.128 s
c last restart ## conflicts  :  949 93307 
o 3521 | cpuTime 1103.13 s
c last restart ## conflicts  :  393 85469 
o 3460 | cpuTime 1303.01 s
c last restart ## conflicts  :  593 79299 
o 3184 | cpuTime 1519.14 s
s UNKNOWN
c Search is stopped by a limit (maybe time-limit)
cr positiVarArr: [ | 15@1(1->15) | 282@1(6->22) | 536@1(11->16) | 766@1(15->38) | 786@1(16->6) | 1093@1(22->1) | 1935@1(38->11) | 2706@2(1->2) | 2757@2(2->1) | 5411@3(1->3) | 5530@3(3->18) | 6293@3(18->1) | 8162@4(1->50) | 8365@4(5->45) | 9567@4(28->51) | 10093@4(39->5) | 10401@4(45->1) | 10688@4(50->28) | 10751@4(51->39) | 10829@5(1->13) | 11482@5(13->42) | 11649@5(17->1) | 12965@5(42->17) | 13560@6(1->40) | 14873@6(27->1) | 15277@6(34->41) | 15582@6(40->34) | 15627@6(41->27) | 16273@7(1->49) | 16663@7(9->23) | 17398@7(23->30) | 17763@7(30->31) | 17785@7(31->1) | 17869@7(32->33) | 17897@7(33->9) | 18492@7(44->32) | 18764@7(49->44) | 18935@8(1->7) | 19266@8(7->26) | 20275@8(26->47) | 21321@8(47->1) | 21642@9(1->10) | 22101@9(10->1) | 24350@10(1->14) | 25032@10(14->20) | 25325@10(20->1) | 27059@11(1->19) | 27197@11(4->1) | 27425@11(8->21) | 27984@11(19->8) | 28105@11(21->25) | 28317@11(25->29) | 28500@11(29->4) | 29779@12(1->35) | 30368@12(12->52) | 30952@12(24->12) | 31560@12(35->48) | 31565@12(36->1) | 31652@12(37->36) | 31974@12(43->46) | 32121@12(46->37) | 32212@12(48->24) | 32439@12(52->43) | ]
cr the 1-th chain: [ 1->15->38->11->16->6->22->1 ] (#non-depot=6) {#cumul.=7}
cr the 2-th chain: [ 1->2->1 ] (#non-depot=1) {#cumul.=8}
cr the 3-th chain: [ 1->3->18->1 ] (#non-depot=2) {#cumul.=10}
cr the 4-th chain: [ 1->50->28->51->39->5->45->1 ] (#non-depot=6) {#cumul.=16}
cr the 5-th chain: [ 1->13->42->17->1 ] (#non-depot=3) {#cumul.=19}
cr the 6-th chain: [ 1->40->34->41->27->1 ] (#non-depot=4) {#cumul.=23}
cr the 7-th chain: [ 1->49->44->32->33->9->23->30->31->1 ] (#non-depot=8) {#cumul.=31}
cr the 8-th chain: [ 1->7->26->47->1 ] (#non-depot=3) {#cumul.=34}
cr the 9-th chain: [ 1->10->1 ] (#non-depot=1) {#cumul.=35}
cr the 10-th chain: [ 1->14->20->1 ] (#non-depot=2) {#cumul.=37}
cr the 11-th chain: [ 1->19->8->21->25->29->4->1 ] (#non-depot=6) {#cumul.=43}
cr the 12-th chain: [ 1->35->48->24->12->52->43->46->37->36->1 ] (#non-depot=9) {#cumul.=52}
c Latest Answer = 0 by 6 loops
c restarts              : 23580
c conflicts             : 4630212        (1292 /sec)
c decisions             : 262481314      (0.00 % random) (73251 /sec)
c propagations          : 22200445928    (6195508 /sec)
c conflict literals     : 2820151410     (17.67 % deleted)
c Memory used           : 14917.00 MB
c CPU time              : 3583.31 s
